WARNING: for repeatability, setting FPU to use double precision
============================[ Problem Statistics ]=============================
|                                                                             |
|  Number of variables:        600845                                         |
|  Number of clauses:         1543836                                         |
|  Parse time:                   0.47 s                                       |
|                                                                             |
============================[ Search Statistics ]==============================
| Conflicts |          ORIGINAL         |          LEARNT          | Progress |
|           |    Vars  Clauses Literals |    Limit  Clauses Lit/Cl |          |
===============================================================================
|       100 |  356166  1507471  3371908 |   552739      100     17 | 40.722 % |
|       250 |  356166  1507471  3371908 |   608013      250     23 | 40.722 % |
|       475 |  356166  1507471  3371908 |   668814      475     43 | 40.722 % |
|       812 |  356166  1507471  3371908 |   735696      812     33 | 40.722 % |
|      1318 |  356166  1507471  3371908 |   809265     1318     38 | 40.722 % |
|      2077 |  356166  1507471  3371908 |   890192     2077     39 | 40.722 % |
|      3216 |  356166  1507471  3371908 |   979211     3216     60 | 40.722 % |
|      4924 |  356166  1507471  3371908 |  1077132     4924     52 | 40.722 % |
|      7486 |  356166  1507471  3371908 |  1184845     7486     50 | 40.722 % |
|     11330 |  356166  1507471  3371908 |  1303330    11330     62 | 40.722 % |
|     17096 |  356166  1507471  3371908 |  1433663    17096     86 | 40.722 % |
|     25745 |  356166  1507471  3371908 |  1577029    25745    100 | 40.722 % |
|     38719 |  356166  1507471  3371908 |  1734732    38719    101 | 40.722 % |
|     58180 |  356166  1507471  3371908 |  1908206    58180    103 | 40.722 % |
|     87372 |  356166  1507471  3371908 |  2099026    87372    108 | 40.722 % |
|    131161 |  356166  1507471  3371908 |  2308929   131161    108 | 40.722 % |
|    196845 |  356166  1507471  3371908 |  2539822   196845    114 | 40.722 % |
|    295371 |  356166  1507471  3371908 |  2793804   295371    131 | 40.722 % |
|    443160 |  356166  1507471  3371908 |  3073185   443160    132 | 40.722 % |
|    664843 |  356166  1507471  3371908 |  3380503   664843    135 | 40.722 % |
|    997368 |  356166  1507471  3371908 |  3718554   997368    141 | 40.722 % |
===============================================================================
restarts              : 2301
conflicts             : 1216982        (515 /sec)
decisions             : 4132298        (0.00 % random) (1748 /sec)
propagations          : 5998974882     (2538153 /sec)
conflict literals     : 186918861      (27.11 % deleted)
Memory used           : 1081.00 MB
CPU time              : 2363.52 s

SATISFIABLE
